
  22   10
  10   10   10   10   10   10   10   10   10   10

   0   0   0   0   0   0   0   0   0   0   0   4 2 3 4 6 
  10   0   0   0   0   0  10   0   0   0   0   3 15 8 7 
   9   0   0   0   0   0   0   0   0   0  10   1 5 
   7   0   0  10   0   0   0   0   0   0   0   4 15 13 11 9 
   7   0   0   0   0   0   0   0   0  10   0   3 15 11 7 
   9   0   0  10   0   0   0   0   0   0   0   3 15 9 8 
   2   0   0   0   0   0   0   0  10   0   0   1 9 
   3  10   0   0   0   0   0   0   0   0   0   2 12 11 
   3   0   0   0   0   0   0   0   0   0  10   1 10 
   8  10   0   0   0   0   0   0   0   0   0   2 18 12 
   4   0   0   0   0  10   0   0   0   0   0   3 21 18 14 
   1   0   0  10   0   0   0   0   0   0   0   2 21 14 
  10   0  10   0   0   0   0   0   0   0   0   3 21 20 16 
   3   0   0   0   0   0   0   0   0   0  10   2 20 16 
   2   0   0   0   0   0  10   0   0   0   0   1 16 
   6  10   0   0   0   0   0   0   0   0   0   1 17 
   7   0   0   0   0  10   0   0   0   0   0   1 19 
  10   0   0  10   0   0   0   0   0   0   0   1 19 
   7  10   0   0   0   0   0   0   0   0   0   1 22
  10  10   0   0   0   0   0   0   0   0   0   1 22
   9   0   0  10   0   0   0   0   0   0   0   1 22
   0   0   0   0   0   0   0   0   0   0   0   0 
